benchmarks_vrp/CMT5/no_cluster/CMT5_11.vrp
NAME: CMT5_11
TYPE: CVRP
COMMENT: 1291.29 - Cluster Nr.11
DIMENSION: 12
CAPACITY: 200
EDGE_WEIGHT_TYPE: EUC_2D
NODE_COORD_TYPE: TWOD_COORDS
NODE_COORD_SECTION: 
5 56 39
6 61 33
7 56 37
10 35 35
4 50 30
11 50 35
1 56 37
12 55 34
8 58 27
9 52 33
3 57 29
2 52 26
DEPOT_SECTION: 
10
-1
DEMAND_SECTION: 
12 17
6 26
3 18
11 19
7 10
4 21
10 0
8 19
5 36
1 6
2 13
9 11
EOF
