benchmarks_vrp/CMT5/no_cluster/CMT5_11.tour
NAME: CMT5_11 solution
TYPE: TOUR
TOUR_SECTION:
10 4 2 8 3 6 5 1 7 12 9 11 -1
-1
EOF